0 37 69
1 27 68
2 31 62
3 42 57
4 37 52
5 38 46
6 42 41
7 45 35
8 40 30
9 32 22
10 27 23
11 20 26
12 17 33
13 25 32
14 31 32
15 32 39
16 30 48
17 21 47
18 25 55
19 16 57
20 17 63
21 5 64
22 8 52
23 12 42
24 7 38
25 5 25
26 10 17
27 5 6
28 13 13
29 21 10
30 30 15
31 36 16
32 39 10
33 46 10
34 59 15
35 51 21
36 58 27
37 48 28
38 52 41
39 52 41
40 56 37
41 61 33
42 62 42
43 58 48
44 49 49
45 57 58
46 62 63
47 63 69
48 52 64
49 43 67